p edge 883
e 0 16
e 0 154
e 0 817
e 1 16
e 1 18
e 1 59
e 1 154
e 2 3
e 2 4
e 2 12
e 2 17
e 2 79
e 3 17
e 3 26
e 3 79
e 4 12
e 4 17
e 4 18
e 4 20
e 4 22
e 4 23
e 4 175
e 5 53
e 5 74
e 5 152
e 5 155
e 5 157
e 5 162
e 5 163
e 5 167
e 5 822
e 6 97
e 6 168
e 6 170
e 6 440
e 6 515
e 6 524
e 7 42
e 7 99
e 7 104
e 7 137
e 7 486
e 7 538
e 7 539
e 8 15
e 8 16
e 8 17
e 8 25
e 8 26
e 8 46
e 8 79
e 8 816
e 8 817
e 9 46
e 9 79
e 9 87
e 9 245
e 9 382
e 9 666
e 10 44
e 10 50
e 10 82
e 10 96
e 10 97
e 10 439
e 11 21
e 11 42
e 11 80
e 11 104
e 11 159
e 11 561
e 11 624
e 12 22
e 12 69
e 12 74
e 12 79
e 12 98
e 12 689
e 13 15
e 13 19
e 13 100
e 13 154
e 13 816
e 14 47
e 14 48
e 14 59
e 14 68
e 14 100
e 14 174
e 15 19
e 15 25
e 15 100
e 15 816
e 16 17
e 16 154
e 16 817
e 17 18
e 17 26
e 18 59
e 18 175
e 19 100
e 20 21
e 20 23
e 20 41
e 20 59
e 20 80
e 20 104
e 20 175
e 21 23
e 21 80
e 21 561
e 22 23
e 22 74
e 22 561
e 23 561
e 24 27
e 24 48
e 24 93
e 24 100
e 25 43
e 25 46
e 25 100
e 26 79
e 27 48
e 27 93
e 27 111
e 28 133
e 28 272
e 28 590
e 28 595
e 29 30
e 29 261
e 29 297
e 29 443
e 29 461
e 29 494
e 29 677
e 29 687
e 29 698
e 30 31
e 30 35
e 30 206
e 30 461
e 30 497
e 30 500
e 30 687
e 30 705
e 30 707
e 31 35
e 31 213
e 31 658
e 31 665
e 31 687
e 32 259
e 32 709
e 32 858
e 32 859
e 32 861
e 33 92
e 33 106
e 33 107
e 33 108
e 33 211
e 33 212
e 33 828
e 33 829
e 34 39
e 34 83
e 34 90
e 34 210
e 34 214
e 34 755
e 35 91
e 35 201
e 35 204
e 35 206
e 35 213
e 36 86
e 36 90
e 36 216
e 36 830
e 37 91
e 37 212
e 37 213
e 37 832
e 37 834
e 37 835
e 38 73
e 38 200
e 38 208
e 38 753
e 38 754
e 38 827
e 39 90
e 39 211
e 39 214
e 39 215
e 40 109
e 40 200
e 40 210
e 41 59
e 41 68
e 41 104
e 42 104
e 42 159
e 42 172
e 42 219
e 42 486
e 43 46
e 43 87
e 43 100
e 44 50
e 44 56
e 44 166
e 44 439
e 44 811
e 45 69
e 45 98
e 45 114
e 45 116
e 45 703
e 45 804
e 45 820
e 46 79
e 46 87
e 47 59
e 47 174
e 48 68
e 48 100
e 48 111
e 49 57
e 49 152
e 49 166
e 49 562
e 49 847
e 50 82
e 50 809
e 50 811
e 50 815
e 51 115
e 51 116
e 51 117
e 51 818
e 51 819
e 52 160
e 52 301
e 52 302
e 52 537
e 53 74
e 53 98
e 53 167
e 53 803
e 53 804
e 54 61
e 54 101
e 54 151
e 54 158
e 54 812
e 55 72
e 55 78
e 55 102
e 55 824
e 56 57
e 56 67
e 56 165
e 56 166
e 56 188
e 56 439
e 56 586
e 56 805
e 57 95
e 57 152
e 57 166
e 57 188
e 58 101
e 58 554
e 58 555
e 58 557
e 58 558
e 59 68
e 59 71
e 59 100
e 59 154
e 59 174
e 59 175
e 60 70
e 60 103
e 60 441
e 60 442
e 60 528
e 60 625
e 60 842
e 61 151
e 61 158
e 61 806
e 61 815
e 62 66
e 62 82
e 62 96
e 62 97
e 62 101
e 62 170
e 63 64
e 63 84
e 63 85
e 63 203
e 63 833
e 64 92
e 64 203
e 64 211
e 64 833
e 65 161
e 65 453
e 65 620
e 65 621
e 65 837
e 66 82
e 66 101
e 66 814
e 67 95
e 67 171
e 67 186
e 67 805
e 68 86
e 68 99
e 68 111
e 69 98
e 69 689
e 69 703
e 70 77
e 70 103
e 70 528
e 70 560
e 70 622
e 70 842
e 71 174
e 72 75
e 72 101
e 72 102
e 72 513
e 72 824
e 73 137
e 73 539
e 73 540
e 73 541
e 73 754
e 73 827
e 74 561
e 74 822
e 75 101
e 75 513
e 75 799
e 75 802
e 75 824
e 76 117
e 76 180
e 76 181
e 76 818
e 77 78
e 77 164
e 77 560
e 77 563
e 77 622
e 78 102
e 78 164
e 78 553
e 78 563
e 78 824
e 79 245
e 79 247
e 79 689
e 80 104
e 81 101
e 81 153
e 81 281
e 81 810
e 82 96
e 82 815
e 83 207
e 83 214
e 84 85
e 84 832
e 84 833
e 84 834
e 85 91
e 85 203
e 85 834
e 86 93
e 86 99
e 86 111
e 86 205
e 86 209
e 86 216
e 86 830
e 87 88
e 87 100
e 87 201
e 87 206
e 87 209
e 87 382
e 88 206
e 88 382
e 88 500
e 88 865
e 89 106
e 89 110
e 89 207
e 90 200
e 90 210
e 90 215
e 90 216
e 90 827
e 90 830
e 91 203
e 91 213
e 91 834
e 92 211
e 92 212
e 92 832
e 92 833
e 93 100
e 93 111
e 93 205
e 93 209
e 94 95
e 94 116
e 94 117
e 94 171
e 94 179
e 94 180
e 95 116
e 95 152
e 95 157
e 95 171
e 95 186
e 95 187
e 95 188
e 95 803
e 95 804
e 96 97
e 97 170
e 97 439
e 97 515
e 98 804
e 99 104
e 99 202
e 99 216
e 99 538
e 100 154
e 100 209
e 101 102
e 101 153
e 101 158
e 101 168
e 101 170
e 101 366
e 101 448
e 101 450
e 101 513
e 101 517
e 101 524
e 101 547
e 101 548
e 101 556
e 101 558
e 101 760
e 101 802
e 101 812
e 101 814
e 102 553
e 102 555
e 102 556
e 103 105
e 103 122
e 103 161
e 103 561
e 103 624
e 103 625
e 105 161
e 105 621
e 105 622
e 106 110
e 106 211
e 106 829
e 107 108
e 108 828
e 108 829
e 109 200
e 109 208
e 109 210
e 110 207
e 110 214
e 111 205
e 112 340
e 112 350
e 112 745
e 112 784
e 113 326
e 113 330
e 113 488
e 113 596
e 113 720
e 113 766
e 113 836
e 114 115
e 114 116
e 114 819
e 114 820
e 115 116
e 115 819
e 116 117
e 117 180
e 117 818
e 118 314
e 118 488
e 118 571
e 118 596
e 118 831
e 119 120
e 119 121
e 119 122
e 119 123
e 119 825
e 119 826
e 120 122
e 120 123
e 120 161
e 121 122
e 121 155
e 121 822
e 121 825
e 122 161
e 122 561
e 122 822
e 123 161
e 123 298
e 123 826
e 124 138
e 124 140
e 124 800
e 124 801
e 125 129
e 125 135
e 125 277
e 125 565
e 125 587
e 125 857
e 126 127
e 126 516
e 126 518
e 126 522
e 126 530
e 126 627
e 127 521
e 127 530
e 127 611
e 127 627
e 128 131
e 128 132
e 128 196
e 128 244
e 128 296
e 128 564
e 128 871
e 129 273
e 129 276
e 129 277
e 129 280
e 129 587
e 129 592
e 129 601
e 130 133
e 130 272
e 130 273
e 130 601
e 131 132
e 131 196
e 131 274
e 131 279
e 132 279
e 132 564
e 133 273
e 133 589
e 133 590
e 134 591
e 134 592
e 135 295
e 135 565
e 135 857
e 135 873
e 136 137
e 136 486
e 136 725
e 136 737
e 136 752
e 136 754
e 136 788
e 137 486
e 137 539
e 137 754
e 138 139
e 138 504
e 138 672
e 138 800
e 139 140
e 139 459
e 139 672
e 140 141
e 140 144
e 140 459
e 140 801
e 141 143
e 141 144
e 141 801
e 142 143
e 142 264
e 142 288
e 142 294
e 142 496
e 142 801
e 143 144
e 143 288
e 143 801
e 144 146
e 144 288
e 144 459
e 144 672
e 145 438
e 145 468
e 145 712
e 146 288
e 146 290
e 146 510
e 146 659
e 146 660
e 147 148
e 147 289
e 147 855
e 147 866
e 148 855
e 148 866
e 148 873
e 149 150
e 149 632
e 149 696
e 149 854
e 149 866
e 150 263
e 150 291
e 150 321
e 150 632
e 150 866
e 151 812
e 151 813
e 151 815
e 152 157
e 152 162
e 152 562
e 153 158
e 153 810
e 154 816
e 154 817
e 155 162
e 155 163
e 155 822
e 155 825
e 156 254
e 156 808
e 156 847
e 157 167
e 157 803
e 158 806
e 158 810
e 159 172
e 159 624
e 159 625
e 160 173
e 160 255
e 160 302
e 160 448
e 160 449
e 160 537
e 160 843
e 161 298
e 161 621
e 161 837
e 162 178
e 162 825
e 163 822
e 164 169
e 164 553
e 164 622
e 164 626
e 165 171
e 165 179
e 165 185
e 165 586
e 166 811
e 166 847
e 167 803
e 168 170
e 168 524
e 169 620
e 169 621
e 169 626
e 171 179
e 172 219
e 172 441
e 172 529
e 172 625
e 173 255
e 173 449
e 176 177
e 176 547
e 176 548
e 176 802
e 177 489
e 177 547
e 177 559
e 177 786
e 177 799
e 178 301
e 178 562
e 178 825
e 178 826
e 178 846
e 179 180
e 179 185
e 180 181
e 181 182
e 181 185
e 182 185
e 182 674
e 182 818
e 182 819
e 182 820
e 183 193
e 183 194
e 183 348
e 183 381
e 183 616
e 184 197
e 184 199
e 184 331
e 184 336
e 184 546
e 185 531
e 185 586
e 185 674
e 186 187
e 186 805
e 187 188
e 187 805
e 188 805
e 189 191
e 189 192
e 189 308
e 189 336
e 189 344
e 189 345
e 189 544
e 189 616
e 190 332
e 190 347
e 190 520
e 190 525
e 190 618
e 190 619
e 191 192
e 191 195
e 191 344
e 191 475
e 191 590
e 192 193
e 192 334
e 192 475
e 192 589
e 192 616
e 193 194
e 193 334
e 193 616
e 194 334
e 194 346
e 194 348
e 194 380
e 194 476
e 195 344
e 195 590
e 195 595
e 196 274
e 196 282
e 196 380
e 196 476
e 196 511
e 196 871
e 197 198
e 197 199
e 197 472
e 198 199
e 198 304
e 198 471
e 198 472
e 198 474
e 198 526
e 199 474
e 200 208
e 200 210
e 200 827
e 201 204
e 201 206
e 201 209
e 202 216
e 202 538
e 202 540
e 202 541
e 203 204
e 203 211
e 203 215
e 204 209
e 204 215
e 204 830
e 206 500
e 208 210
e 208 584
e 208 713
e 208 753
e 208 755
e 209 830
e 210 755
e 211 214
e 211 215
e 212 213
e 212 832
e 213 658
e 213 667
e 213 828
e 215 830
e 216 541
e 216 827
e 217 282
e 217 333
e 217 347
e 217 379
e 217 380
e 217 535
e 217 545
e 218 219
e 218 486
e 218 581
e 218 758
e 219 374
e 219 486
e 219 529
e 219 581
e 220 221
e 220 482
e 220 765
e 221 482
e 221 731
e 221 765
e 222 241
e 222 508
e 222 733
e 222 756
e 222 757
e 222 762
e 223 236
e 223 363
e 223 364
e 223 390
e 224 234
e 224 235
e 224 236
e 224 363
e 224 787
e 225 232
e 225 237
e 225 240
e 225 604
e 226 238
e 226 572
e 226 579
e 226 584
e 226 772
e 227 228
e 227 238
e 227 239
e 227 376
e 227 772
e 228 229
e 228 230
e 228 239
e 228 241
e 228 242
e 228 376
e 229 239
e 229 241
e 229 757
e 230 241
e 230 242
e 230 768
e 230 791
e 231 243
e 231 484
e 231 576
e 231 717
e 231 729
e 231 780
e 232 233
e 232 237
e 232 480
e 232 604
e 233 480
e 233 604
e 233 743
e 233 750
e 233 751
e 234 235
e 234 480
e 234 787
e 235 236
e 235 240
e 235 480
e 236 240
e 236 363
e 236 390
e 237 240
e 237 480
e 238 376
e 238 572
e 238 582
e 238 772
e 239 509
e 239 714
e 240 388
e 241 757
e 241 762
e 241 783
e 241 791
e 242 376
e 242 582
e 242 768
e 242 770
e 243 485
e 243 576
e 243 717
e 244 279
e 244 295
e 244 296
e 244 564
e 244 867
e 244 869
e 245 247
e 245 258
e 245 432
e 245 433
e 245 435
e 245 498
e 245 506
e 245 666
e 246 247
e 246 319
e 246 435
e 246 689
e 247 435
e 247 689
e 248 251
e 248 253
e 248 499
e 248 630
e 248 637
e 248 691
e 248 701
e 248 706
e 249 250
e 249 399
e 249 415
e 249 419
e 250 419
e 250 421
e 250 651
e 251 499
e 251 637
e 252 269
e 252 383
e 252 629
e 252 633
e 252 712
e 252 838
e 252 864
e 253 691
e 254 281
e 254 807
e 254 844
e 254 847
e 255 299
e 255 449
e 255 453
e 255 537
e 256 421
e 256 422
e 256 651
e 256 653
e 256 681
e 256 698
e 257 318
e 257 320
e 257 324
e 257 328
e 257 329
e 257 356
e 257 357
e 257 578
e 257 608
e 257 740
e 258 387
e 258 506
e 258 666
e 258 676
e 259 270
e 259 503
e 259 635
e 259 675
e 259 710
e 259 711
e 259 848
e 259 849
e 259 858
e 260 454
e 260 460
e 260 490
e 260 491
e 260 527
e 261 443
e 261 657
e 261 698
e 262 263
e 262 292
e 262 294
e 262 321
e 262 496
e 262 634
e 262 685
e 263 291
e 263 292
e 263 321
e 264 294
e 264 496
e 265 266
e 265 402
e 265 447
e 265 458
e 266 400
e 266 401
e 266 458
e 266 659
e 266 660
e 267 457
e 267 631
e 267 640
e 267 644
e 267 854
e 267 870
e 268 412
e 268 431
e 268 467
e 268 652
e 268 860
e 268 862
e 269 462
e 269 469
e 269 614
e 269 615
e 269 623
e 269 629
e 269 633
e 270 503
e 270 505
e 270 635
e 270 661
e 270 712
e 270 848
e 270 852
e 270 875
e 270 877
e 271 275
e 271 276
e 271 591
e 271 592
e 272 278
e 272 595
e 273 280
e 273 589
e 273 601
e 274 279
e 274 476
e 274 565
e 274 588
e 275 591
e 275 592
e 276 277
e 276 591
e 276 592
e 276 857
e 277 857
e 278 592
e 278 601
e 279 295
e 279 564
e 279 565
e 280 587
e 280 589
e 281 448
e 281 807
e 281 810
e 281 844
e 282 343
e 282 511
e 282 545
e 283 284
e 283 332
e 283 342
e 283 526
e 283 542
e 284 332
e 284 342
e 284 379
e 285 286
e 285 331
e 285 335
e 285 344
e 286 335
e 287 306
e 287 310
e 287 311
e 287 378
e 287 549
e 287 551
e 288 294
e 288 510
e 288 567
e 288 602
e 288 868
e 289 293
e 289 600
e 289 866
e 289 868
e 290 510
e 290 511
e 290 534
e 290 545
e 290 660
e 290 841
e 291 292
e 291 600
e 292 293
e 292 294
e 292 600
e 293 600
e 293 868
e 294 496
e 294 868
e 295 565
e 295 867
e 295 869
e 295 873
e 296 567
e 296 602
e 296 869
e 296 871
e 297 387
e 297 432
e 297 494
e 297 677
e 298 299
e 298 300
e 298 837
e 299 300
e 299 453
e 299 537
e 299 837
e 300 301
e 300 537
e 300 826
e 301 302
e 301 845
e 301 846
e 302 843
e 302 845
e 303 304
e 303 305
e 303 349
e 303 549
e 303 550
e 303 552
e 304 305
e 304 470
e 304 471
e 304 526
e 304 552
e 305 342
e 305 349
e 305 526
e 306 345
e 306 378
e 306 473
e 306 543
e 307 308
e 307 381
e 307 616
e 307 617
e 308 616
e 308 617
e 309 427
e 309 440
e 309 515
e 309 524
e 309 840
e 310 311
e 310 472
e 310 473
e 310 546
e 311 470
e 311 472
e 311 551
e 312 323
e 312 484
e 312 715
e 312 732
e 313 482
e 313 487
e 313 731
e 313 761
e 313 782
e 313 821
e 314 315
e 314 605
e 314 609
e 314 610
e 314 831
e 314 836
e 315 316
e 315 609
e 315 836
e 316 317
e 316 318
e 316 608
e 316 609
e 316 836
e 317 318
e 317 320
e 317 608
e 318 320
e 318 324
e 318 325
e 319 434
e 319 435
e 319 498
e 319 655
e 319 688
e 319 689
e 320 608
e 321 632
e 321 685
e 321 692
e 321 838
e 322 340
e 322 732
e 322 745
e 322 782
e 322 821
e 323 327
e 323 369
e 323 568
e 323 732
e 324 325
e 324 326
e 324 328
e 325 326
e 325 836
e 326 328
e 326 330
e 326 836
e 327 340
e 327 352
e 327 732
e 328 329
e 328 330
e 329 330
e 329 338
e 329 341
e 329 578
e 330 337
e 330 338
e 330 766
e 331 335
e 331 336
e 331 344
e 331 474
e 332 347
e 332 379
e 332 542
e 332 619
e 333 346
e 333 378
e 333 379
e 333 380
e 334 476
e 334 588
e 334 589
e 335 474
e 336 344
e 336 345
e 337 338
e 337 477
e 337 766
e 338 341
e 338 785
e 339 350
e 339 371
e 339 372
e 339 748
e 339 761
e 339 784
e 340 350
e 340 351
e 340 745
e 341 578
e 341 785
e 342 349
e 342 378
e 342 526
e 343 511
e 343 545
e 345 473
e 345 543
e 345 544
e 345 546
e 346 378
e 346 380
e 346 543
e 346 544
e 347 379
e 347 430
e 347 523
e 347 535
e 347 839
e 348 381
e 348 544
e 348 617
e 349 378
e 349 549
e 350 351
e 350 371
e 351 352
e 351 370
e 351 371
e 352 369
e 353 356
e 353 578
e 353 771
e 353 775
e 354 355
e 354 356
e 354 362
e 354 723
e 354 771
e 355 356
e 355 358
e 355 362
e 356 357
e 356 358
e 356 359
e 356 483
e 356 578
e 356 771
e 357 483
e 357 740
e 358 359
e 358 360
e 358 362
e 359 360
e 359 483
e 359 580
e 359 740
e 360 361
e 360 365
e 360 580
e 360 746
e 361 366
e 361 580
e 361 606
e 361 608
e 361 746
e 361 760
e 362 365
e 362 377
e 362 723
e 363 364
e 363 481
e 364 390
e 364 481
e 364 593
e 364 594
e 364 823
e 365 367
e 365 368
e 365 746
e 366 367
e 366 547
e 366 746
e 366 760
e 367 368
e 367 547
e 367 746
e 368 377
e 368 489
e 368 547
e 369 370
e 369 568
e 370 371
e 370 372
e 370 568
e 370 760
e 371 372
e 372 507
e 372 760
e 373 727
e 373 728
e 373 735
e 373 752
e 373 759
e 373 778
e 373 785
e 374 529
e 374 581
e 374 776
e 375 721
e 375 725
e 375 737
e 375 768
e 375 770
e 375 783
e 375 791
e 376 582
e 377 489
e 377 723
e 377 781
e 377 786
e 378 379
e 380 476
e 381 616
e 381 617
e 382 666
e 382 678
e 382 865
e 383 384
e 383 671
e 383 712
e 383 864
e 384 385
e 384 456
e 384 645
e 384 671
e 385 634
e 385 649
e 385 864
e 386 395
e 386 412
e 386 466
e 386 467
e 387 506
e 387 676
e 387 677
e 387 707
e 388 389
e 388 390
e 388 391
e 388 604
e 389 391
e 389 603
e 389 604
e 390 391
e 390 594
e 391 593
e 391 594
e 391 603
e 392 393
e 392 573
e 392 734
e 393 482
e 393 734
e 393 765
e 394 404
e 394 415
e 394 420
e 394 663
e 395 411
e 395 454
e 395 466
e 396 397
e 396 398
e 396 399
e 396 411
e 396 454
e 397 398
e 397 399
e 397 493
e 397 663
e 398 454
e 398 490
e 398 493
e 399 411
e 399 415
e 399 651
e 400 401
e 400 402
e 400 645
e 400 646
e 400 671
e 401 646
e 401 659
e 401 672
e 402 447
e 402 671
e 402 876
e 403 413
e 403 431
e 403 467
e 403 502
e 403 669
e 403 876
e 403 878
e 404 405
e 404 420
e 404 663
e 405 406
e 405 420
e 405 492
e 405 663
e 405 863
e 406 407
e 406 416
e 406 420
e 406 863
e 407 408
e 407 416
e 407 417
e 407 420
e 408 409
e 408 410
e 408 417
e 408 420
e 409 410
e 409 417
e 409 418
e 409 419
e 409 422
e 410 414
e 410 419
e 410 420
e 411 412
e 411 651
e 412 467
e 412 651
e 412 652
e 413 669
e 413 876
e 414 415
e 414 419
e 414 420
e 415 420
e 415 663
e 416 664
e 416 688
e 416 702
e 416 863
e 417 418
e 417 664
e 418 422
e 418 664
e 418 698
e 419 422
e 421 422
e 421 651
e 423 426
e 423 439
e 423 515
e 423 536
e 423 839
e 424 427
e 424 517
e 424 520
e 424 840
e 425 427
e 425 430
e 425 520
e 425 523
e 426 532
e 426 533
e 426 534
e 426 535
e 426 536
e 426 839
e 427 515
e 427 520
e 427 523
e 428 429
e 428 522
e 428 531
e 428 613
e 429 522
e 429 530
e 429 531
e 430 520
e 430 523
e 431 467
e 431 502
e 431 860
e 431 878
e 432 494
e 432 495
e 432 506
e 433 495
e 433 498
e 433 688
e 433 702
e 434 655
e 434 689
e 434 703
e 435 498
e 436 444
e 436 681
e 436 698
e 436 704
e 436 880
e 436 881
e 436 882
e 437 438
e 437 468
e 437 502
e 437 669
e 437 876
e 438 468
e 438 502
e 438 712
e 438 874
e 438 877
e 439 515
e 439 536
e 439 586
e 440 515
e 440 524
e 441 442
e 441 529
e 442 625
e 443 657
e 443 687
e 443 690
e 444 446
e 444 657
e 444 698
e 444 704
e 445 446
e 445 662
e 445 691
e 445 694
e 445 695
e 446 636
e 446 684
e 446 691
e 446 695
e 446 704
e 447 454
e 447 458
e 447 460
e 447 466
e 447 467
e 447 876
e 448 449
e 448 450
e 448 843
e 449 450
e 449 451
e 449 452
e 449 453
e 450 451
e 450 554
e 450 626
e 451 452
e 451 620
e 451 626
e 452 453
e 452 620
e 453 620
e 454 460
e 454 466
e 454 490
e 455 462
e 455 463
e 455 686
e 455 849
e 455 850
e 456 504
e 456 648
e 456 649
e 456 672
e 457 640
e 457 641
e 457 643
e 457 644
e 457 696
e 457 697
e 458 460
e 458 660
e 458 693
e 459 672
e 460 516
e 460 693
e 461 677
e 461 707
e 462 463
e 462 615
e 462 623
e 462 850
e 463 623
e 463 686
e 463 700
e 463 704
e 464 465
e 464 623
e 464 628
e 464 639
e 465 623
e 465 639
e 465 700
e 466 467
e 467 876
e 468 712
e 468 876
e 469 614
e 469 615
e 469 633
e 469 670
e 470 471
e 470 472
e 470 551
e 470 552
e 471 472
e 472 546
e 473 546
e 475 589
e 475 590
e 476 588
e 477 716
e 477 766
e 477 778
e 477 785
e 478 566
e 478 719
e 478 779
e 478 789
e 479 480
e 479 574
e 479 734
e 479 743
e 479 744
e 479 787
e 480 743
e 480 787
e 481 738
e 481 739
e 481 787
e 482 574
e 482 731
e 482 734
e 482 761
e 482 765
e 482 777
e 484 568
e 484 715
e 484 729
e 484 730
e 484 780
e 485 569
e 485 577
e 485 717
e 485 774
e 486 727
e 486 752
e 486 758
e 487 575
e 487 730
e 487 731
e 487 764
e 488 569
e 488 571
e 488 596
e 488 720
e 488 774
e 489 547
e 489 786
e 490 491
e 490 493
e 491 493
e 491 527
e 491 613
e 492 493
e 492 674
e 492 863
e 493 613
e 493 663
e 493 674
e 494 495
e 494 698
e 494 702
e 495 702
e 496 504
e 496 634
e 496 800
e 496 801
e 497 500
e 497 678
e 497 705
e 497 865
e 498 688
e 499 501
e 499 637
e 499 638
e 499 643
e 499 650
e 499 701
e 500 865
e 501 637
e 501 641
e 501 642
e 502 669
e 502 860
e 502 862
e 502 874
e 502 878
e 503 505
e 503 635
e 503 858
e 504 634
e 504 649
e 504 672
e 504 800
e 505 858
e 505 875
e 507 593
e 507 748
e 507 760
e 507 823
e 508 509
e 508 756
e 508 757
e 509 714
e 509 756
e 509 757
e 510 511
e 510 567
e 510 871
e 511 545
e 511 871
e 512 853
e 512 856
e 512 866
e 512 872
e 514 521
e 514 536
e 514 611
e 515 523
e 515 839
e 516 518
e 516 519
e 516 522
e 516 527
e 516 693
e 517 520
e 517 524
e 517 525
e 517 526
e 517 840
e 518 519
e 518 536
e 518 611
e 518 627
e 519 532
e 519 536
e 519 660
e 519 693
e 519 841
e 520 525
e 521 530
e 521 536
e 521 586
e 521 611
e 521 612
e 522 527
e 522 530
e 522 613
e 523 839
e 524 840
e 525 526
e 525 618
e 526 542
e 526 618
e 527 613
e 528 529
e 528 560
e 528 776
e 528 842
e 529 776
e 530 531
e 530 586
e 531 586
e 531 613
e 531 674
e 532 534
e 532 536
e 532 841
e 533 534
e 533 535
e 533 545
e 534 545
e 534 841
e 535 545
e 535 839
e 536 611
e 536 612
e 538 539
e 538 540
e 539 540
e 540 541
e 542 618
e 542 619
e 543 544
e 544 617
e 547 548
e 548 802
e 549 550
e 549 551
e 550 551
e 550 552
e 551 552
e 553 555
e 553 626
e 554 555
e 554 626
e 555 556
e 555 557
e 555 626
e 556 557
e 556 558
e 557 558
e 559 560
e 559 563
e 559 741
e 559 763
e 559 786
e 559 799
e 559 824
e 560 563
e 560 763
e 560 776
e 561 624
e 561 822
e 562 846
e 562 847
e 563 824
e 565 587
e 565 588
e 566 779
e 566 795
e 567 602
e 567 871
e 568 718
e 568 760
e 569 570
e 569 571
e 569 577
e 569 597
e 569 598
e 570 571
e 570 597
e 570 831
e 572 582
e 572 584
e 573 719
e 573 734
e 573 743
e 573 790
e 574 734
e 574 744
e 574 767
e 574 777
e 575 726
e 575 731
e 575 749
e 575 764
e 576 577
e 576 718
e 576 760
e 577 598
e 577 760
e 578 785
e 579 772
e 580 608
e 580 740
e 581 747
e 581 758
e 581 763
e 581 776
e 582 584
e 582 713
e 582 722
e 582 770
e 583 714
e 583 724
e 583 772
e 584 713
e 584 724
e 584 755
e 585 726
e 585 733
e 585 749
e 585 762
e 585 783
e 585 792
e 585 793
e 586 612
e 587 588
e 587 589
e 588 589
e 589 590
e 590 595
e 592 601
e 593 594
e 593 603
e 593 760
e 593 823
e 596 836
e 597 598
e 597 599
e 597 610
e 597 760
e 597 831
e 598 760
e 599 605
e 599 606
e 599 610
e 599 760
e 600 866
e 602 855
e 602 868
e 602 869
e 602 873
e 603 604
e 603 760
e 604 751
e 604 760
e 605 606
e 605 607
e 605 609
e 605 610
e 606 607
e 606 608
e 606 760
e 607 608
e 607 609
e 608 609
e 608 740
e 611 627
e 613 674
e 614 633
e 615 670
e 615 699
e 615 848
e 615 851
e 618 619
e 620 621
e 621 622
e 623 628
e 623 629
e 623 700
e 624 625
e 628 629
e 628 639
e 628 838
e 629 838
e 630 701
e 630 706
e 631 640
e 631 641
e 632 692
e 632 696
e 633 661
e 633 670
e 633 712
e 634 649
e 634 685
e 634 838
e 636 662
e 636 667
e 636 684
e 636 695
e 637 656
e 637 691
e 638 650
e 638 692
e 638 696
e 638 697
e 638 701
e 639 668
e 639 692
e 639 701
e 639 706
e 639 838
e 640 641
e 641 642
e 641 643
e 642 643
e 643 650
e 643 697
e 644 696
e 644 854
e 644 870
e 645 646
e 645 647
e 645 648
e 645 671
e 646 647
e 646 672
e 647 648
e 647 672
e 648 672
e 650 697
e 651 652
e 651 653
e 652 653
e 652 654
e 652 708
e 652 859
e 652 862
e 653 654
e 653 679
e 653 681
e 654 679
e 654 682
e 654 708
e 654 709
e 655 688
e 655 703
e 656 683
e 656 691
e 656 694
e 657 658
e 657 684
e 657 690
e 658 665
e 658 667
e 658 684
e 658 690
e 659 660
e 659 672
e 660 693
e 660 841
e 661 670
e 661 712
e 661 852
e 662 667
e 662 683
e 662 695
e 664 698
e 664 702
e 665 687
e 665 690
e 666 676
e 666 678
e 667 683
e 667 684
e 667 828
e 668 691
e 668 700
e 668 706
e 669 876
e 670 699
e 671 712
e 671 876
e 673 683
e 673 828
e 673 829
e 674 688
e 674 703
e 674 820
e 674 863
e 675 709
e 675 710
e 675 882
e 676 678
e 676 705
e 676 707
e 677 707
e 678 865
e 679 680
e 679 681
e 680 681
e 680 709
e 680 882
e 681 882
e 682 708
e 682 709
e 682 859
e 683 694
e 683 828
e 685 838
e 686 704
e 686 849
e 686 879
e 687 690
e 688 702
e 688 703
e 688 863
e 691 694
e 691 700
e 691 704
e 691 706
e 692 701
e 692 838
e 696 697
e 696 854
e 698 702
e 699 848
e 699 852
e 700 704
e 701 706
e 703 820
e 704 881
e 705 707
e 708 859
e 710 711
e 710 880
e 711 879
e 711 880
e 712 876
e 712 877
e 713 722
e 713 753
e 714 756
e 714 772
e 715 730
e 715 732
e 715 782
e 716 717
e 716 720
e 716 721
e 716 729
e 716 766
e 716 769
e 716 773
e 716 774
e 716 778
e 717 729
e 717 774
e 718 760
e 718 780
e 719 789
e 719 790
e 720 766
e 720 774
e 721 725
e 721 769
e 721 773
e 721 783
e 722 753
e 722 754
e 722 770
e 723 771
e 723 775
e 723 781
e 724 755
e 724 772
e 725 737
e 725 752
e 725 773
e 726 749
e 726 793
e 727 752
e 727 758
e 728 752
e 728 773
e 728 778
e 729 730
e 729 769
e 730 749
e 730 764
e 730 782
e 731 765
e 732 782
e 733 762
e 733 792
e 733 793
e 735 747
e 735 759
e 735 775
e 735 785
e 736 760
e 736 795
e 736 798
e 737 754
e 737 770
e 737 788
e 738 739
e 738 744
e 738 767
e 738 787
e 739 748
e 739 767
e 739 777
e 739 823
e 741 747
e 741 763
e 741 775
e 741 786
e 742 789
e 742 790
e 742 794
e 742 796
e 742 798
e 743 790
e 744 767
e 744 787
e 745 784
e 745 821
e 747 758
e 747 759
e 747 763
e 747 775
e 748 761
e 748 777
e 748 823
e 749 764
e 749 769
e 749 783
e 750 751
e 750 790
e 750 794
e 751 760
e 751 794
e 752 773
e 753 754
e 754 770
e 754 788
e 758 759
e 760 794
e 760 798
e 761 777
e 761 784
e 761 821
e 762 783
e 762 792
e 763 776
e 767 777
e 768 770
e 768 791
e 769 783
e 771 775
e 773 778
e 775 781
e 775 785
e 778 785
e 779 789
e 779 795
e 779 796
e 779 797
e 781 786
e 782 821
e 783 791
e 784 821
e 789 790
e 789 796
e 794 798
e 795 797
e 795 798
e 796 797
e 796 798
e 797 798
e 799 802
e 799 824
e 803 804
e 806 807
e 806 810
e 807 808
e 807 809
e 807 810
e 807 815
e 808 809
e 808 811
e 808 847
e 809 811
e 809 815
e 811 847
e 812 813
e 812 814
e 813 814
e 813 815
e 814 815
e 816 817
e 818 819
e 819 820
e 825 826
e 828 829
e 832 833
e 832 834
e 832 835
e 834 835
e 838 864
e 843 844
e 844 845
e 844 846
e 845 846
e 846 847
e 848 851
e 848 852
e 849 850
e 849 851
e 849 879
e 850 851
e 853 856
e 853 866
e 853 873
e 854 870
e 854 872
e 855 868
e 855 873
e 856 857
e 856 873
e 857 873
e 858 861
e 858 875
e 859 861
e 859 862
e 860 862
e 861 862
e 861 875
e 862 874
e 862 875
e 866 872
e 866 873
e 867 869
e 869 873
e 874 875
e 874 877
e 875 877
e 879 881
e 880 881
e 880 882
c k 5
